c Reading file examples/loan_acquisition/mmc_encoding/encoding.dimacs
c Building 1-fold quantitative self-composition...
c ind 102  103  108  109  110  111  112  113  117  118 0
c previous ind: 432  433  434  437  440  441  444  445  448  451  452  455  456  459  460  463  466  467  470  471  474  475  478  481  482  485  486  489  490  493  494  497  498  501  502  504  505  506 0
c This is a CNF SAT formula in the DIMACS CNF format,
c produced with the bc2cnf translator by Tommi Junttila;
c see http://users.ics.aalto.fi/tjunttil/circuits/index.html
c phi_Gamma_det <-> 1
c phi_Gamma <-> 1
c phi_T_transitions <-> 1
c phi_T <-> 1
c phi_sim_leaves <-> 1
c phi_sim_transition <-> 1
c phi_sim <-> 1
c FORMULA <-> 1
c pi_0 <-> 2
c phi_T_transitions_consistency <-> 85
c tau_0_3_approved_1 <-> 102
c tau_0_3_approved_0 <-> 103
c tau_0_2_approved_1 <-> 108
c tau_0_2_approved_0 <-> 109
c tau_0_1_approved_1 <-> 110
c tau_0_1_approved_0 <-> 111
c tau_0_0_approved_1 <-> 112
c tau_0_0_approved_0 <-> 113
c phi_T_feature_det <-> 114
c lam_0_monthly_income <-> 117
c lam_0_age <-> 118
c phi_Gamma_val <-> 430
c pi_approved_0 <-> 432
c approved_P0 <-> 432
c monthly_income_P823600 <-> 433
c age_P2900 <-> 434
c monthly_income_P205000 <-> 437
c monthly_income_P858200 <-> 440
c age_P7000 <-> 441
c monthly_income_P233200 <-> 444
c age_P4900 <-> 445
c monthly_income_P949000 <-> 448
c monthly_income_P403900 <-> 451
c age_P4800 <-> 452
c monthly_income_P190000 <-> 455
c age_P5300 <-> 456
c monthly_income_P823500 <-> 459
c age_P7900 <-> 460
c monthly_income_P839900 <-> 463
c monthly_income_P359800 <-> 466
c age_P6200 <-> 467
c monthly_income_P914900 <-> 470
c age_P7700 <-> 471
c monthly_income_P951500 <-> 474
c age_P3700 <-> 475
c monthly_income_P959100 <-> 478
c monthly_income_P152100 <-> 481
c age_P6000 <-> 482
c monthly_income_P348300 <-> 485
c age_P7300 <-> 486
c monthly_income_P425700 <-> 489
c age_P3200 <-> 490
c monthly_income_P236400 <-> 493
c age_P2600 <-> 494
c monthly_income_P667000 <-> 497
c age_P5100 <-> 498
c monthly_income_P113200 <-> 501
c age_P4700 <-> 502
c pi_approved_1 <-> 504
c approved_P100 <-> 504
c monthly_income_P609500 <-> 505
c age_P7600 <-> 506
c ind 432 433 434 437 440 441 444 445 448 451 452 455 456 459 460 463 466 467 470 471 474 475 478 481 482 485 486 489 490 493 494 497 498 501 502 504 505 506 0
p cnf 508 1413
1 0
2 -3 0
2 -14 0
-2 14 3 0
2 0
-3 4 0
-3 62 0
3 -62 -4 0
-4 5 0
-4 117 0
4 -117 -5 0
5 -6 0
5 -83 0
-5 83 6 0
6 -7 0
6 -33 0
-6 33 7 0
7 -8 0
7 -35 0
-7 35 8 0
8 -9 0
8 -37 0
-8 37 9 0
9 -10 0
9 -39 0
-9 39 10 0
10 -11 0
10 -43 0
-10 43 11 0
11 -12 0
11 -73 0
-11 73 12 0
12 -13 0
12 -45 0
-12 45 13 0
13 -50 0
13 -59 0
-13 59 50 0
14 -15 0
14 -26 0
-14 26 15 0
-15 16 0
-15 78 0
15 -78 -16 0
-16 17 0
-16 117 0
16 -117 -17 0
17 -18 0
17 -67 0
-17 67 18 0
18 -19 0
18 -69 0
-18 69 19 0
19 -20 0
19 -71 0
-19 71 20 0
20 -21 0
20 -58 0
-20 58 21 0
21 -22 0
21 -41 0
-21 41 22 0
22 -23 0
22 -47 0
-22 47 23 0
23 -24 0
23 -49 0
-23 49 24 0
24 -25 0
24 -75 0
-24 75 25 0
25 -76 0
25 -84 0
-25 84 76 0
26 -27 0
26 -51 0
-26 51 27 0
-27 28 0
-27 31 0
27 -31 -28 0
-28 29 0
-28 30 0
28 -30 -29 0
29 102 0
29 -504 0
-29 504 -102 0
30 103 0
30 -432 0
-30 432 -103 0
-31 32 0
-31 118 0
31 -118 -32 0
32 -33 0
32 -34 0
-32 34 33 0
-33 440 0
-33 441 0
33 -441 -440 0
34 -35 0
34 -36 0
-34 36 35 0
-35 448 0
-35 471 0
35 -471 -448 0
36 -37 0
36 -38 0
-36 38 37 0
-37 459 0
-37 460 0
37 -460 -459 0
38 -39 0
38 -40 0
-38 40 39 0
-39 463 0
-39 506 0
39 -506 -463 0
40 -41 0
40 -42 0
-40 42 41 0
-41 466 0
-41 467 0
41 -467 -466 0
42 -43 0
42 -44 0
-42 44 43 0
-43 470 0
-43 471 0
43 -471 -470 0
44 -45 0
44 -46 0
-44 46 45 0
-45 478 0
-45 506 0
45 -506 -478 0
46 -47 0
46 -48 0
-46 48 47 0
-47 481 0
-47 482 0
47 -482 -481 0
48 -49 0
48 -50 0
-48 50 49 0
-49 485 0
-49 486 0
49 -486 -485 0
-50 505 0
-50 506 0
50 -506 -505 0
51 -52 0
51 -60 0
-51 60 52 0
-52 53 0
-52 56 0
52 -56 -53 0
-53 54 0
-53 55 0
53 -55 -54 0
54 108 0
54 -504 0
-54 504 -108 0
55 109 0
55 -432 0
-55 432 -109 0
-56 57 0
-56 118 0
56 -118 -57 0
57 -58 0
57 -59 0
-57 59 58 0
-58 455 0
-58 456 0
58 -456 -455 0
-59 497 0
-59 498 0
59 -498 -497 0
60 -61 0
60 -77 0
-60 77 61 0
-61 62 0
-61 65 0
61 -65 -62 0
-62 63 0
-62 64 0
62 -64 -63 0
63 110 0
63 -504 0
-63 504 -110 0
64 111 0
64 -432 0
-64 432 -111 0
-65 66 0
-65 118 0
65 -118 -66 0
66 -67 0
66 -68 0
-66 68 67 0
-67 437 0
-67 502 0
67 -502 -437 0
68 -69 0
68 -70 0
-68 70 69 0
-69 444 0
-69 445 0
69 -445 -444 0
70 -71 0
70 -72 0
-70 72 71 0
-71 451 0
-71 452 0
71 -452 -451 0
72 -73 0
72 -74 0
-72 74 73 0
-73 474 0
-73 475 0
73 -475 -474 0
74 -75 0
74 -76 0
-74 76 75 0
-75 489 0
-75 490 0
75 -490 -489 0
-76 501 0
-76 502 0
76 -502 -501 0
-77 78 0
-77 81 0
77 -81 -78 0
-78 79 0
-78 80 0
78 -80 -79 0
79 112 0
79 -504 0
-79 504 -112 0
80 113 0
80 -432 0
-80 432 -113 0
-81 82 0
-81 118 0
81 -118 -82 0
82 -83 0
82 -84 0
-82 84 83 0
-83 433 0
-83 434 0
83 -434 -433 0
-84 493 0
-84 494 0
84 -494 -493 0
85 117 0
85 -86 0
-85 86 -117 0
85 0
-86 -102 0
-86 87 0
86 -87 102 0
-87 -103 0
-87 88 0
87 -88 103 0
-88 -108 0
-88 -109 0
88 109 108 0
89 117 0
89 -90 0
-89 90 -117 0
89 0
-90 91 0
-90 94 0
90 -94 -91 0
91 -92 0
91 -93 0
-91 93 92 0
-92 -111 0
-92 110 0
92 -110 111 0
-93 -110 0
-93 111 0
93 -111 110 0
94 -95 0
94 -96 0
-94 96 95 0
-95 -113 0
-95 112 0
95 -112 113 0
-96 -112 0
-96 113 0
96 -113 112 0
97 118 0
97 -98 0
-97 98 -118 0
97 0
-98 99 0
-98 104 0
98 -104 -99 0
99 -100 0
99 -101 0
-99 101 100 0
-100 -103 0
-100 102 0
100 -102 103 0
-101 -102 0
-101 103 0
101 -103 102 0
-104 90 0
-104 105 0
104 -105 -90 0
105 -106 0
105 -107 0
-105 107 106 0
-106 -109 0
-106 108 0
106 -108 109 0
-107 -108 0
-107 109 0
107 -109 108 0
114 -115 0
114 -116 0
-114 116 115 0
114 0
-115 -118 0
-115 117 0
115 -117 118 0
-116 -117 0
-116 118 0
116 -118 117 0
119 504 0
119 432 0
-119 -432 -504 0
119 0
120 437 0
120 433 0
-120 -433 -437 0
120 0
121 440 0
121 -122 0
-121 122 -440 0
121 0
-122 -437 0
-122 -433 0
122 433 437 0
123 444 0
123 -124 0
-123 124 -444 0
123 0
-124 -433 0
-124 125 0
124 -125 433 0
-125 -437 0
-125 -440 0
125 440 437 0
126 448 0
126 -127 0
-126 127 -448 0
126 0
-127 -433 0
-127 128 0
127 -128 433 0
-128 -437 0
-128 129 0
128 -129 437 0
-129 -440 0
-129 -444 0
129 444 440 0
130 451 0
130 -131 0
-130 131 -451 0
130 0
-131 -433 0
-131 132 0
131 -132 433 0
-132 -437 0
-132 133 0
132 -133 437 0
-133 -440 0
-133 134 0
133 -134 440 0
-134 -444 0
-134 -448 0
134 448 444 0
135 455 0
135 -136 0
-135 136 -455 0
135 0
-136 -433 0
-136 137 0
136 -137 433 0
-137 -437 0
-137 138 0
137 -138 437 0
-138 -440 0
-138 139 0
138 -139 440 0
-139 -444 0
-139 140 0
139 -140 444 0
-140 -448 0
-140 -451 0
140 451 448 0
141 459 0
141 -142 0
-141 142 -459 0
141 0
-142 -433 0
-142 143 0
142 -143 433 0
-143 -437 0
-143 144 0
143 -144 437 0
-144 -440 0
-144 145 0
144 -145 440 0
-145 -444 0
-145 146 0
145 -146 444 0
-146 -448 0
-146 147 0
146 -147 448 0
-147 -451 0
-147 -455 0
147 455 451 0
148 463 0
148 -149 0
-148 149 -463 0
148 0
-149 -433 0
-149 150 0
149 -150 433 0
-150 -437 0
-150 151 0
150 -151 437 0
-151 -440 0
-151 152 0
151 -152 440 0
-152 -444 0
-152 153 0
152 -153 444 0
-153 -448 0
-153 154 0
153 -154 448 0
-154 -451 0
-154 155 0
154 -155 451 0
-155 -455 0
-155 -459 0
155 459 455 0
156 466 0
156 -157 0
-156 157 -466 0
156 0
-157 -433 0
-157 158 0
157 -158 433 0
-158 -437 0
-158 159 0
158 -159 437 0
-159 -440 0
-159 160 0
159 -160 440 0
-160 -444 0
-160 161 0
160 -161 444 0
-161 -448 0
-161 162 0
161 -162 448 0
-162 -451 0
-162 163 0
162 -163 451 0
-163 -455 0
-163 164 0
163 -164 455 0
-164 -459 0
-164 -463 0
164 463 459 0
165 470 0
165 -166 0
-165 166 -470 0
165 0
-166 -433 0
-166 167 0
166 -167 433 0
-167 -437 0
-167 168 0
167 -168 437 0
-168 -440 0
-168 169 0
168 -169 440 0
-169 -444 0
-169 170 0
169 -170 444 0
-170 -448 0
-170 171 0
170 -171 448 0
-171 -451 0
-171 172 0
171 -172 451 0
-172 -455 0
-172 173 0
172 -173 455 0
-173 -459 0
-173 174 0
173 -174 459 0
-174 -463 0
-174 -466 0
174 466 463 0
175 474 0
175 -176 0
-175 176 -474 0
175 0
-176 -433 0
-176 177 0
176 -177 433 0
-177 -437 0
-177 178 0
177 -178 437 0
-178 -440 0
-178 179 0
178 -179 440 0
-179 -444 0
-179 180 0
179 -180 444 0
-180 -448 0
-180 181 0
180 -181 448 0
-181 -451 0
-181 182 0
181 -182 451 0
-182 -455 0
-182 183 0
182 -183 455 0
-183 -459 0
-183 184 0
183 -184 459 0
-184 -463 0
-184 185 0
184 -185 463 0
-185 -466 0
-185 -470 0
185 470 466 0
186 478 0
186 -187 0
-186 187 -478 0
186 0
-187 -433 0
-187 188 0
187 -188 433 0
-188 -437 0
-188 189 0
188 -189 437 0
-189 -440 0
-189 190 0
189 -190 440 0
-190 -444 0
-190 191 0
190 -191 444 0
-191 -448 0
-191 192 0
191 -192 448 0
-192 -451 0
-192 193 0
192 -193 451 0
-193 -455 0
-193 194 0
193 -194 455 0
-194 -459 0
-194 195 0
194 -195 459 0
-195 -463 0
-195 196 0
195 -196 463 0
-196 -466 0
-196 197 0
196 -197 466 0
-197 -470 0
-197 -474 0
197 474 470 0
198 481 0
198 -199 0
-198 199 -481 0
198 0
-199 -433 0
-199 200 0
199 -200 433 0
-200 -437 0
-200 201 0
200 -201 437 0
-201 -440 0
-201 202 0
201 -202 440 0
-202 -444 0
-202 203 0
202 -203 444 0
-203 -448 0
-203 204 0
203 -204 448 0
-204 -451 0
-204 205 0
204 -205 451 0
-205 -455 0
-205 206 0
205 -206 455 0
-206 -459 0
-206 207 0
206 -207 459 0
-207 -463 0
-207 208 0
207 -208 463 0
-208 -466 0
-208 209 0
208 -209 466 0
-209 -470 0
-209 210 0
209 -210 470 0
-210 -474 0
-210 -478 0
210 478 474 0
211 485 0
211 -212 0
-211 212 -485 0
211 0
-212 -433 0
-212 213 0
212 -213 433 0
-213 -437 0
-213 214 0
213 -214 437 0
-214 -440 0
-214 215 0
214 -215 440 0
-215 -444 0
-215 216 0
215 -216 444 0
-216 -448 0
-216 217 0
216 -217 448 0
-217 -451 0
-217 218 0
217 -218 451 0
-218 -455 0
-218 219 0
218 -219 455 0
-219 -459 0
-219 220 0
219 -220 459 0
-220 -463 0
-220 221 0
220 -221 463 0
-221 -466 0
-221 222 0
221 -222 466 0
-222 -470 0
-222 223 0
222 -223 470 0
-223 -474 0
-223 224 0
223 -224 474 0
-224 -478 0
-224 -481 0
224 481 478 0
225 489 0
225 -226 0
-225 226 -489 0
225 0
-226 -433 0
-226 227 0
226 -227 433 0
-227 -437 0
-227 228 0
227 -228 437 0
-228 -440 0
-228 229 0
228 -229 440 0
-229 -444 0
-229 230 0
229 -230 444 0
-230 -448 0
-230 231 0
230 -231 448 0
-231 -451 0
-231 232 0
231 -232 451 0
-232 -455 0
-232 233 0
232 -233 455 0
-233 -459 0
-233 234 0
233 -234 459 0
-234 -463 0
-234 235 0
234 -235 463 0
-235 -466 0
-235 236 0
235 -236 466 0
-236 -470 0
-236 237 0
236 -237 470 0
-237 -474 0
-237 238 0
237 -238 474 0
-238 -478 0
-238 239 0
238 -239 478 0
-239 -481 0
-239 -485 0
239 485 481 0
240 493 0
240 -241 0
-240 241 -493 0
240 0
-241 -433 0
-241 242 0
241 -242 433 0
-242 -437 0
-242 243 0
242 -243 437 0
-243 -440 0
-243 244 0
243 -244 440 0
-244 -444 0
-244 245 0
244 -245 444 0
-245 -448 0
-245 246 0
245 -246 448 0
-246 -451 0
-246 247 0
246 -247 451 0
-247 -455 0
-247 248 0
247 -248 455 0
-248 -459 0
-248 249 0
248 -249 459 0
-249 -463 0
-249 250 0
249 -250 463 0
-250 -466 0
-250 251 0
250 -251 466 0
-251 -470 0
-251 252 0
251 -252 470 0
-252 -474 0
-252 253 0
252 -253 474 0
-253 -478 0
-253 254 0
253 -254 478 0
-254 -481 0
-254 255 0
254 -255 481 0
-255 -485 0
-255 -489 0
255 489 485 0
256 497 0
256 -257 0
-256 257 -497 0
256 0
-257 -433 0
-257 258 0
257 -258 433 0
-258 -437 0
-258 259 0
258 -259 437 0
-259 -440 0
-259 260 0
259 -260 440 0
-260 -444 0
-260 261 0
260 -261 444 0
-261 -448 0
-261 262 0
261 -262 448 0
-262 -451 0
-262 263 0
262 -263 451 0
-263 -455 0
-263 264 0
263 -264 455 0
-264 -459 0
-264 265 0
264 -265 459 0
-265 -463 0
-265 266 0
265 -266 463 0
-266 -466 0
-266 267 0
266 -267 466 0
-267 -470 0
-267 268 0
267 -268 470 0
-268 -474 0
-268 269 0
268 -269 474 0
-269 -478 0
-269 270 0
269 -270 478 0
-270 -481 0
-270 271 0
270 -271 481 0
-271 -485 0
-271 272 0
271 -272 485 0
-272 -489 0
-272 -493 0
272 493 489 0
273 501 0
273 -274 0
-273 274 -501 0
273 0
-274 -433 0
-274 275 0
274 -275 433 0
-275 -437 0
-275 276 0
275 -276 437 0
-276 -440 0
-276 277 0
276 -277 440 0
-277 -444 0
-277 278 0
277 -278 444 0
-278 -448 0
-278 279 0
278 -279 448 0
-279 -451 0
-279 280 0
279 -280 451 0
-280 -455 0
-280 281 0
280 -281 455 0
-281 -459 0
-281 282 0
281 -282 459 0
-282 -463 0
-282 283 0
282 -283 463 0
-283 -466 0
-283 284 0
283 -284 466 0
-284 -470 0
-284 285 0
284 -285 470 0
-285 -474 0
-285 286 0
285 -286 474 0
-286 -478 0
-286 287 0
286 -287 478 0
-287 -481 0
-287 288 0
287 -288 481 0
-288 -485 0
-288 289 0
288 -289 485 0
-289 -489 0
-289 290 0
289 -290 489 0
-290 -493 0
-290 -497 0
290 497 493 0
291 505 0
291 -292 0
-291 292 -505 0
291 0
-292 -433 0
-292 293 0
292 -293 433 0
-293 -437 0
-293 294 0
293 -294 437 0
-294 -440 0
-294 295 0
294 -295 440 0
-295 -444 0
-295 296 0
295 -296 444 0
-296 -448 0
-296 297 0
296 -297 448 0
-297 -451 0
-297 298 0
297 -298 451 0
-298 -455 0
-298 299 0
298 -299 455 0
-299 -459 0
-299 300 0
299 -300 459 0
-300 -463 0
-300 301 0
300 -301 463 0
-301 -466 0
-301 302 0
301 -302 466 0
-302 -470 0
-302 303 0
302 -303 470 0
-303 -474 0
-303 304 0
303 -304 474 0
-304 -478 0
-304 305 0
304 -305 478 0
-305 -481 0
-305 306 0
305 -306 481 0
-306 -485 0
-306 307 0
306 -307 485 0
-307 -489 0
-307 308 0
307 -308 489 0
-308 -493 0
-308 309 0
308 -309 493 0
-309 -497 0
-309 -501 0
309 501 497 0
310 441 0
310 434 0
-310 -434 -441 0
310 0
311 445 0
311 -312 0
-311 312 -445 0
311 0
-312 -441 0
-312 -434 0
312 434 441 0
313 452 0
313 -314 0
-313 314 -452 0
313 0
-314 -434 0
-314 315 0
314 -315 434 0
-315 -441 0
-315 -445 0
315 445 441 0
316 456 0
316 -317 0
-316 317 -456 0
316 0
-317 -434 0
-317 318 0
317 -318 434 0
-318 -441 0
-318 319 0
318 -319 441 0
-319 -445 0
-319 -452 0
319 452 445 0
320 460 0
320 -321 0
-320 321 -460 0
320 0
-321 -434 0
-321 322 0
321 -322 434 0
-322 -441 0
-322 323 0
322 -323 441 0
-323 -445 0
-323 324 0
323 -324 445 0
-324 -452 0
-324 -456 0
324 456 452 0
325 467 0
325 -326 0
-325 326 -467 0
325 0
-326 -434 0
-326 327 0
326 -327 434 0
-327 -441 0
-327 328 0
327 -328 441 0
-328 -445 0
-328 329 0
328 -329 445 0
-329 -452 0
-329 330 0
329 -330 452 0
-330 -456 0
-330 -460 0
330 460 456 0
331 471 0
331 -332 0
-331 332 -471 0
331 0
-332 -434 0
-332 333 0
332 -333 434 0
-333 -441 0
-333 334 0
333 -334 441 0
-334 -445 0
-334 335 0
334 -335 445 0
-335 -452 0
-335 336 0
335 -336 452 0
-336 -456 0
-336 337 0
336 -337 456 0
-337 -460 0
-337 -467 0
337 467 460 0
338 475 0
338 -339 0
-338 339 -475 0
338 0
-339 -434 0
-339 340 0
339 -340 434 0
-340 -441 0
-340 341 0
340 -341 441 0
-341 -445 0
-341 342 0
341 -342 445 0
-342 -452 0
-342 343 0
342 -343 452 0
-343 -456 0
-343 344 0
343 -344 456 0
-344 -460 0
-344 345 0
344 -345 460 0
-345 -467 0
-345 -471 0
345 471 467 0
346 482 0
346 -347 0
-346 347 -482 0
346 0
-347 -434 0
-347 348 0
347 -348 434 0
-348 -441 0
-348 349 0
348 -349 441 0
-349 -445 0
-349 350 0
349 -350 445 0
-350 -452 0
-350 351 0
350 -351 452 0
-351 -456 0
-351 352 0
351 -352 456 0
-352 -460 0
-352 353 0
352 -353 460 0
-353 -467 0
-353 354 0
353 -354 467 0
-354 -471 0
-354 -475 0
354 475 471 0
355 486 0
355 -356 0
-355 356 -486 0
355 0
-356 -434 0
-356 357 0
356 -357 434 0
-357 -441 0
-357 358 0
357 -358 441 0
-358 -445 0
-358 359 0
358 -359 445 0
-359 -452 0
-359 360 0
359 -360 452 0
-360 -456 0
-360 361 0
360 -361 456 0
-361 -460 0
-361 362 0
361 -362 460 0
-362 -467 0
-362 363 0
362 -363 467 0
-363 -471 0
-363 364 0
363 -364 471 0
-364 -475 0
-364 -482 0
364 482 475 0
365 490 0
365 -366 0
-365 366 -490 0
365 0
-366 -434 0
-366 367 0
366 -367 434 0
-367 -441 0
-367 368 0
367 -368 441 0
-368 -445 0
-368 369 0
368 -369 445 0
-369 -452 0
-369 370 0
369 -370 452 0
-370 -456 0
-370 371 0
370 -371 456 0
-371 -460 0
-371 372 0
371 -372 460 0
-372 -467 0
-372 373 0
372 -373 467 0
-373 -471 0
-373 374 0
373 -374 471 0
-374 -475 0
-374 375 0
374 -375 475 0
-375 -482 0
-375 -486 0
375 486 482 0
376 494 0
376 -377 0
-376 377 -494 0
376 0
-377 -434 0
-377 378 0
377 -378 434 0
-378 -441 0
-378 379 0
378 -379 441 0
-379 -445 0
-379 380 0
379 -380 445 0
-380 -452 0
-380 381 0
380 -381 452 0
-381 -456 0
-381 382 0
381 -382 456 0
-382 -460 0
-382 383 0
382 -383 460 0
-383 -467 0
-383 384 0
383 -384 467 0
-384 -471 0
-384 385 0
384 -385 471 0
-385 -475 0
-385 386 0
385 -386 475 0
-386 -482 0
-386 387 0
386 -387 482 0
-387 -486 0
-387 -490 0
387 490 486 0
388 498 0
388 -389 0
-388 389 -498 0
388 0
-389 -434 0
-389 390 0
389 -390 434 0
-390 -441 0
-390 391 0
390 -391 441 0
-391 -445 0
-391 392 0
391 -392 445 0
-392 -452 0
-392 393 0
392 -393 452 0
-393 -456 0
-393 394 0
393 -394 456 0
-394 -460 0
-394 395 0
394 -395 460 0
-395 -467 0
-395 396 0
395 -396 467 0
-396 -471 0
-396 397 0
396 -397 471 0
-397 -475 0
-397 398 0
397 -398 475 0
-398 -482 0
-398 399 0
398 -399 482 0
-399 -486 0
-399 400 0
399 -400 486 0
-400 -490 0
-400 -494 0
400 494 490 0
401 502 0
401 -402 0
-401 402 -502 0
401 0
-402 -434 0
-402 403 0
402 -403 434 0
-403 -441 0
-403 404 0
403 -404 441 0
-404 -445 0
-404 405 0
404 -405 445 0
-405 -452 0
-405 406 0
405 -406 452 0
-406 -456 0
-406 407 0
406 -407 456 0
-407 -460 0
-407 408 0
407 -408 460 0
-408 -467 0
-408 409 0
408 -409 467 0
-409 -471 0
-409 410 0
409 -410 471 0
-410 -475 0
-410 411 0
410 -411 475 0
-411 -482 0
-411 412 0
411 -412 482 0
-412 -486 0
-412 413 0
412 -413 486 0
-413 -490 0
-413 414 0
413 -414 490 0
-414 -494 0
-414 -498 0
414 498 494 0
415 506 0
415 -416 0
-415 416 -506 0
415 0
-416 -434 0
-416 417 0
416 -417 434 0
-417 -441 0
-417 418 0
417 -418 441 0
-418 -445 0
-418 419 0
418 -419 445 0
-419 -452 0
-419 420 0
419 -420 452 0
-420 -456 0
-420 421 0
420 -421 456 0
-421 -460 0
-421 422 0
421 -422 460 0
-422 -467 0
-422 423 0
422 -423 467 0
-423 -471 0
-423 424 0
423 -424 471 0
-424 -475 0
-424 425 0
424 -425 475 0
-425 -482 0
-425 426 0
425 -426 482 0
-426 -486 0
-426 427 0
426 -427 486 0
-427 -490 0
-427 428 0
427 -428 490 0
-428 -494 0
-428 429 0
428 -429 494 0
-429 -498 0
-429 -502 0
429 502 498 0
430 -431 0
430 -435 0
-430 435 431 0
430 0
-431 83 0
-431 432 0
431 -432 -83 0
435 -436 0
435 -438 0
-435 438 436 0
-436 67 0
-436 504 0
436 -504 -67 0
438 -439 0
438 -442 0
-438 442 439 0
-439 33 0
-439 504 0
439 -504 -33 0
442 -443 0
442 -446 0
-442 446 443 0
-443 69 0
-443 504 0
443 -504 -69 0
446 -447 0
446 -449 0
-446 449 447 0
-447 35 0
-447 504 0
447 -504 -35 0
449 -450 0
449 -453 0
-449 453 450 0
-450 71 0
-450 504 0
450 -504 -71 0
453 -454 0
453 -457 0
-453 457 454 0
-454 58 0
-454 504 0
454 -504 -58 0
457 -458 0
457 -461 0
-457 461 458 0
-458 37 0
-458 504 0
458 -504 -37 0
461 -462 0
461 -464 0
-461 464 462 0
-462 39 0
-462 504 0
462 -504 -39 0
464 -465 0
464 -468 0
-464 468 465 0
-465 41 0
-465 504 0
465 -504 -41 0
468 -469 0
468 -472 0
-468 472 469 0
-469 43 0
-469 504 0
469 -504 -43 0
472 -473 0
472 -476 0
-472 476 473 0
-473 73 0
-473 504 0
473 -504 -73 0
476 -477 0
476 -479 0
-476 479 477 0
-477 45 0
-477 504 0
477 -504 -45 0
479 -480 0
479 -483 0
-479 483 480 0
-480 47 0
-480 504 0
480 -504 -47 0
483 -484 0
483 -487 0
-483 487 484 0
-484 49 0
-484 504 0
484 -504 -49 0
487 -488 0
487 -491 0
-487 491 488 0
-488 75 0
-488 504 0
488 -504 -75 0
491 -492 0
491 -495 0
-491 495 492 0
-492 84 0
-492 504 0
492 -504 -84 0
495 -496 0
495 -499 0
-495 499 496 0
-496 59 0
-496 504 0
496 -504 -59 0
499 -500 0
499 -503 0
-499 503 500 0
-500 76 0
-500 504 0
500 -504 -76 0
-503 50 0
-503 504 0
503 -504 -50 0
